[VALIDATOR STDOUT]
Checking plan: /home/jfan5/Safety-gen/runs/benchmark/optic/grid_20260129_163214/grid/optic_results/grid_x4_y4_sh2_k4_l4_s4001.plan
Plan executed successfully - checking goal
Plan valid
Final value: 56 

Successful plans:
Value: 56
 /home/jfan5/Safety-gen/runs/benchmark/optic/grid_20260129_163214/grid/optic_results/grid_x4_y4_sh2_k4_l4_s4001.plan 56
